p cnf 50 10
x -2 -4 -5 6 -9 10 -13 14 15 -17 -20 23 24 -26 28 29 31 -32 33 -37 -38 39 40 -43 -44 -47 50 0
x 1 3 -6 -10 16 -17 18 -23 -25 28 -29 31 -32 -37 38 -40 43 -45 46 48 0
x 2 4 5 -7 -8 -9 12 16 -18 -20 23 26 -27 -28 -29 30 -32 -33 -34 35 36 37 -39 -41 44 -48 49 50 0
x 1 2 3 5 -6 8 -9 -10 11 14 -15 -17 18 20 21 24 25 28 -31 -35 36 37 38 39 -41 -42 43 45 -49 0
x 2 -4 -8 -11 -13 -16 19 -20 21 -24 27 30 32 -36 37 39 40 44 -45 48 -49 0
x 3 -4 5 8 9 10 -12 13 15 16 -18 23 -24 29 31 -33 -36 -40 41 42 -43 45 48 49 0
x -1 4 5 -7 -8 -11 -12 13 14 15 -16 17 -18 19 -21 -23 -24 -25 -26 28 -29 30 -32 33 36 -41 42 -44 45 49 0
x 3 -6 8 -9 -10 -11 13 15 16 -17 -18 20 26 28 33 -34 -35 37 -39 -40 -44 -46 0
x 3 -4 -7 -9 10 12 -15 -16 -18 24 -36 37 -39 -40 -44 -45 -46 49 -50 0
x 1 -2 5 6 7 -10 13 -14 -17 21 26 -28 -31 -32 34 35 36 38 39 -40 -41 43 -44 46 47 -48 -49 0
g -20